NAME : tsp_191_sol.txt
COMMENT : OR-Tools Guided Local Search
TYPE : TOUR
DIMENSION : 50
COST : 6031
STATUS : ROUTING_SUCCESS
GAP : 0.00% (Reference Solution)
TOUR_SECTION
1
12
23
31
33
36
27
9
43
13
21
10
26
6
46
38
29
17
44
41
25
50
37
30
2
28
22
8
11
35
47
16
48
34
39
15
32
45
5
4
14
19
42
3
40
7
18
24
20
49
-1
